unknown
(model
; cardinality of BoundSet is 4
(declare-sort BoundSet 0)
; rep: @uc_BoundSet_0
; rep: @uc_BoundSet_1
; rep: @uc_BoundSet_2
; rep: @uc_BoundSet_3
; cardinality of UnboundSet is 1
(declare-sort UnboundSet 0)
(declare-fun groundTerm_5 () UnboundSet)
(define-fun IsSmall ((BOUND_VARIABLE_430 BoundSet)) Bool true)
(define-fun HasShortBrownHair ((BOUND_VARIABLE_430 BoundSet)) Bool true)
(define-fun IsPushing ((BOUND_VARIABLE_437 BoundSet) (BOUND_VARIABLE_438 BoundSet)) Bool true)
(define-fun IsOver ((BOUND_VARIABLE_437 BoundSet) (BOUND_VARIABLE_438 BoundSet)) Bool true)
(define-fun HasBrownLeaves ((BOUND_VARIABLE_437 BoundSet) (BOUND_VARIABLE_438 BoundSet)) Bool true)
(define-fun IsOutside ((BOUND_VARIABLE_430 BoundSet)) Bool false)
)
sat
(model
; cardinality of BoundSet is 1
(declare-sort BoundSet 0)
; rep: @uc_BoundSet_0
; cardinality of UnboundSet is 1
(declare-sort UnboundSet 0)
(declare-fun groundTerm_7 () UnboundSet)
(define-fun IsSmall ((BOUND_VARIABLE_478 BoundSet)) Bool true)
(define-fun HasShortBrownHair ((BOUND_VARIABLE_478 BoundSet)) Bool true)
(define-fun IsPushing ((BOUND_VARIABLE_485 BoundSet) (BOUND_VARIABLE_486 BoundSet)) Bool true)
(define-fun IsOver ((BOUND_VARIABLE_485 BoundSet) (BOUND_VARIABLE_486 BoundSet)) Bool true)
(define-fun HasBrownLeaves ((BOUND_VARIABLE_485 BoundSet) (BOUND_VARIABLE_486 BoundSet)) Bool true)
(define-fun IsOutside ((BOUND_VARIABLE_478 BoundSet)) Bool false)
)
